 vasp.6.5.1 10Mar25 (build Apr 10 2025 20:17:59) complex
 executed on             LinuxGNU date 2025.07.03  14:44:17

 INCAR:
   PREC = Accurate
   ENCUT = 500
   EDIFF = 1E-8
   NELM = 400
   NELMIN = 4
   KPAR = 1
   NCORE = 4
   LWAVE = .TRUE.
   NEDOS = 1001
   LORBIT = 10
   ISMEAR = 1

 POTCAR:    PAW_PBE Al 04Jan2001
 POTCAR:    PAW_PBE Ce 23Dec2003
 POTCAR:    PAW_PBE Co 02Aug2007
 POTCAR:    PAW_PBE Al 04Jan2001
   VRHFIN =Al: s2p1

   TITEL  = PAW_PBE Al 04Jan2001
   POMASS =   26.981; ZVAL   =    3.000    mass and valenz
   ENMAX  =  240.300; ENMIN  =  180.225 eV

   TITEL  = PAW_PBE Ce 23Dec2003
   POMASS =  140.115; ZVAL   =   12.000    mass and valenz
   ENMAX  =  273.042; ENMIN  =  204.781 eV

   TITEL  = PAW_PBE Co 02Aug2007
   POMASS =   58.933; ZVAL   =    9.000    mass and valenz
   ENMAX  =  267.968; ENMIN  =  200.976 eV

  PAW_PBE Al 04Jan2001                  :
  PAW_PBE Ce 23Dec2003                  :
  PAW_PBE Co 02Aug2007                  :

 POSCAR: Generated by VASPKIT code
  positions in direct lattice

 exchange-correlation table for PE
   RHO(1)=    0.500       N(1)  =     2000
   RHO(2)=  100.500       N(2)  =     4000

 ion  position               nearest neighbor table
   1  0.569  0.500  0.303-  12 2.55  12 2.55   6 2.74   3 2.76   2 2.87   8 2.93   8 2.93   5 2.99
                             9 3.20   9 3.20  10 3.24  10 3.24
   2  0.431  0.500  0.697-  11 2.55  11 2.55   5 2.74   4 2.76   1 2.87   8 2.93   8 2.93   6 2.99
                            10 3.20  10 3.20   9 3.24   9 3.24
   3  0.931  0.500  0.303-  12 2.55  12 2.55   6 2.74   1 2.76   4 2.87   7 2.93   7 2.93   5 2.99
                             9 3.20   9 3.20  10 3.24  10 3.24
   4  0.069  0.500  0.697-  11 2.55  11 2.55   5 2.74   2 2.76   3 2.87   7 2.93   7 2.93   6 2.99
                            10 3.20  10 3.20   9 3.24   9 3.24
   5  0.250  0.500  0.045-  11 2.60  11 2.60   2 2.74   4 2.74   7 2.79   7 2.79   8 2.79   8 2.79
                             3 2.99   1 2.99   9 3.06   9 3.06
   6  0.750  0.500  0.955-  12 2.60  12 2.60   1 2.74   3 2.74   7 2.79   7 2.79   8 2.79   8 2.79
                             2 2.99   4 2.99  10 3.06  10 3.06
   7  0.000  0.000  0.000-  11 2.32  12 2.32   5 2.79   6 2.79   5 2.79   6 2.79   3 2.93   4 2.93
                             3 2.93   4 2.93   9 3.23  10 3.23
   8  0.500  0.000  0.000-  11 2.32  12 2.32   5 2.79   6 2.79   5 2.79   6 2.79   1 2.93   2 2.93
                             1 2.93   2 2.93   9 3.23  10 3.23
   9  0.250  0.000  0.384-  11 2.85   5 3.06   5 3.06   3 3.20   1 3.20   3 3.20   1 3.20   7 3.23
                             8 3.23   2 3.24   4 3.24   4 3.24   2 3.24
  10  0.750  0.000  0.616-  12 2.85   6 3.06   6 3.06   4 3.20   2 3.20   4 3.20   2 3.20   7 3.23
                             8 3.23   3 3.24   3 3.24   1 3.24   1 3.24
  11  0.250  0.000  0.804-   7 2.32   8 2.32   2 2.55   4 2.55   2 2.55   4 2.55   5 2.60   5 2.60
                             9 2.85
  12  0.750  0.000  0.196-   7 2.32   8 2.32   1 2.55   3 2.55   1 2.55   3 2.55   6 2.60   6 2.60
                            10 2.85

  LATTYP: Found a simple orthorhombic cell.
 ALAT       =     4.0425022321
 B/A-ratio  =     1.6811578994
 C/A-ratio  =     1.8805108604

  Lattice vectors:

 A1 = (   0.0000000000,   4.0425022321,   0.0000000000)
 A2 = (   0.0000000000,   0.0000000000,   6.7960845610)
 A3 = (   7.6019693506,   0.0000000000,   0.0000000000)

Analysis of symmetry for initial positions (statically):
 Subroutine PRICEL returns:
 Original cell was already a primitive cell.

 Routine SETGRP: Setting up the symmetry group for a
 simple orthorhombic supercell.

 Subroutine GETGRP returns: Found  8 space group operations
 (whereof  4 operations were pure point group operations)
 out of a pool of  8 trial point group operations.

The static configuration has the point symmetry C_2h.
 The point group associated with its full space group is D_2h.

Analysis of symmetry for dynamics (positions and initial velocities):
 Subroutine PRICEL returns:
 Original cell was already a primitive cell.

 Routine SETGRP: Setting up the symmetry group for a
 simple orthorhombic supercell.

 Subroutine GETGRP returns: Found  8 space group operations
 (whereof  4 operations were pure point group operations)
 out of a pool of  8 trial point group operations.

The dynamic configuration has the point symmetry C_2h.
 The point group associated with its full space group is D_2h.

 Subroutine INISYM returns: Found  8 space group operations
 (whereof  4 operations are pure point group operations),
 and found     1 'primitive' translations

                                     Primitive cell

  volume of cell :     208.8503

  direct lattice vectors                    reciprocal lattice vectors
     7.601969351  0.000000000  0.000000000     0.131544861  0.000000000  0.000000000
     0.000000000  4.042502232  0.000000000     0.000000000  0.247371539  0.000000000
     0.000000000  0.000000000  6.796084561     0.000000000  0.000000000  0.147143549

  length of vectors
     7.601969351  4.042502232  6.796084561     0.131544861  0.247371539  0.147143549

  position of ions in fractional coordinates (direct lattice)
     0.568733325  0.500000000  0.303286242
     0.431266675  0.500000000  0.696713758
     0.931266675  0.500000000  0.303286242
     0.068733325  0.500000000  0.696713758
     0.250000000  0.500000000  0.045076650
     0.750000000  0.500000000  0.954923350
     0.000000000  0.000000000  0.000000000
     0.500000000  0.000000000  0.000000000
     0.250000000  0.000000000  0.383824291
     0.750000000  0.000000000  0.616175709
     0.250000000  0.000000000  0.803630368
     0.750000000  0.000000000  0.196369632

  ion indices of the primitive-cell ions
   primitive index   ion index
                 1           1
                 2           2
                 3           3
                 4           4
                 5           5
                 6           6
                 7           7
                 8           8
                 9           9
                10          10
                11          11
                12          12

 KPOINTS: K-Path Generated by VASPKIT.

Interpolating k-points between supplied coordinates.

 Line segments in fractional coordinates (reciprocal lattice):
    0.000000  0.000000  0.000000  ...  0.500000  0.000000  0.000000
    0.500000  0.000000  0.000000  ...  0.500000  0.500000  0.000000
    0.500000  0.500000  0.000000  ...  0.000000  0.500000  0.000000
    0.000000  0.500000  0.000000  ...  0.000000  0.000000  0.000000
    0.000000  0.000000  0.000000  ...  0.000000  0.000000  0.500000
    0.000000  0.000000  0.500000  ...  0.500000  0.000000  0.500000
    0.500000  0.000000  0.500000  ...  0.500000  0.500000  0.500000
    0.500000  0.500000  0.500000  ...  0.000000  0.500000  0.500000
    0.000000  0.500000  0.500000  ...  0.000000  0.000000  0.500000
    0.500000  0.000000  0.000000  ...  0.500000  0.000000  0.500000
    0.000000  0.500000  0.000000  ...  0.000000  0.500000  0.500000
    0.500000  0.500000  0.000000  ...  0.500000  0.500000  0.500000

 Generated    20 points on each line segment, for a total of    240 k-points:

 Following reciprocal coordinates:
            Coordinates               Weight
  0.000000  0.000000  0.000000      0.004167
  0.026316  0.000000  0.000000      0.004167
  0.052632  0.000000  0.000000      0.004167
  0.078947  0.000000  0.000000      0.004167
  0.105263  0.000000  0.000000      0.004167
  0.131579  0.000000  0.000000      0.004167
  0.157895  0.000000  0.000000      0.004167
  0.184211  0.000000  0.000000      0.004167
  0.210526  0.000000  0.000000      0.004167
  0.236842  0.000000  0.000000      0.004167
  0.263158  0.000000  0.000000      0.004167
  0.289474  0.000000  0.000000      0.004167
  0.315789  0.000000  0.000000      0.004167
  0.342105  0.000000  0.000000      0.004167
  0.368421  0.000000  0.000000      0.004167
  0.394737  0.000000  0.000000      0.004167
  0.421053  0.000000  0.000000      0.004167
  0.447368  0.000000  0.000000      0.004167
  0.473684  0.000000  0.000000      0.004167
  0.500000  0.000000  0.000000      0.004167
  0.500000  0.000000  0.000000      0.004167
  0.500000  0.026316  0.000000      0.004167
  0.500000  0.052632  0.000000      0.004167
  0.500000  0.078947  0.000000      0.004167
  0.500000  0.105263  0.000000      0.004167
  0.500000  0.131579  0.000000      0.004167
  0.500000  0.157895  0.000000      0.004167
  0.500000  0.184211  0.000000      0.004167
  0.500000  0.210526  0.000000      0.004167
  0.500000  0.236842  0.000000      0.004167
  0.500000  0.263158  0.000000      0.004167
  0.500000  0.289474  0.000000      0.004167
  0.500000  0.315789  0.000000      0.004167
  0.500000  0.342105  0.000000      0.004167
  0.500000  0.368421  0.000000      0.004167
  0.500000  0.394737  0.000000      0.004167
  0.500000  0.421053  0.000000      0.004167
  0.500000  0.447368  0.000000      0.004167
  0.500000  0.473684  0.000000      0.004167
  0.500000  0.500000  0.000000      0.004167
  0.500000  0.500000  0.000000      0.004167
  0.473684  0.500000  0.000000      0.004167
  0.447368  0.500000  0.000000      0.004167
  0.421053  0.500000  0.000000      0.004167
  0.394737  0.500000  0.000000      0.004167
  0.368421  0.500000  0.000000      0.004167
  0.342105  0.500000  0.000000      0.004167
  0.315789  0.500000  0.000000      0.004167
  0.289474  0.500000  0.000000      0.004167
  0.263158  0.500000  0.000000      0.004167
  0.236842  0.500000  0.000000      0.004167
  0.210526  0.500000  0.000000      0.004167
  0.184211  0.500000  0.000000      0.004167
  0.157895  0.500000  0.000000      0.004167
  0.131579  0.500000  0.000000      0.004167
  0.105263  0.500000  0.000000      0.004167
  0.078947  0.500000  0.000000      0.004167
  0.052632  0.500000  0.000000      0.004167
  0.026316  0.500000  0.000000      0.004167
  0.000000  0.500000  0.000000      0.004167
[...]
  0.500000  0.500000  0.131579      0.004167
  0.500000  0.500000  0.157895      0.004167
  0.500000  0.500000  0.184211      0.004167
  0.500000  0.500000  0.210526      0.004167
  0.500000  0.500000  0.236842      0.004167
  0.500000  0.500000  0.263158      0.004167
  0.500000  0.500000  0.289474      0.004167
  0.500000  0.500000  0.315789      0.004167
  0.500000  0.500000  0.342105      0.004167
  0.500000  0.500000  0.368421      0.004167
  0.500000  0.500000  0.394737      0.004167
  0.500000  0.500000  0.421053      0.004167
  0.500000  0.500000  0.447368      0.004167
  0.500000  0.500000  0.473684      0.004167
  0.500000  0.500000  0.500000      0.004167

 Following cartesian coordinates:
            Coordinates               Weight
  0.000000  0.000000  0.000000      0.004167
  0.003462  0.000000  0.000000      0.004167
  0.006923  0.000000  0.000000      0.004167
  0.010385  0.000000  0.000000      0.004167
  0.013847  0.000000  0.000000      0.004167
  0.017309  0.000000  0.000000      0.004167
  0.020770  0.000000  0.000000      0.004167
  0.024232  0.000000  0.000000      0.004167
  0.027694  0.000000  0.000000      0.004167
[...]
 k-point    38 :   0.5000 0.4474 0.0000  plane waves:    5278
 k-point    39 :   0.5000 0.4737 0.0000  plane waves:    5270
 k-point    40 :   0.5000 0.5000 0.0000  plane waves:    5264
 k-point    41 :   0.5000 0.5000 0.0000  plane waves:    5264
 k-point    42 :   0.4737 0.5000 0.0000  plane waves:    5268
 k-point    43 :   0.4474 0.5000 0.0000  plane waves:    5266
 k-point    44 :   0.4211 0.5000 0.0000  plane waves:    5276
 k-point    45 :   0.3947 0.5000 0.0000  plane waves:    5276
 k-point    46 :   0.3684 0.5000 0.0000  plane waves:    5284
 k-point    47 :   0.3421 0.5000 0.0000  plane waves:    5292
 k-point    48 :   0.3158 0.5000 0.0000  plane waves:    5300
 k-point    49 :   0.2895 0.5000 0.0000  plane waves:    5296
 k-point    50 :   0.2632 0.5000 0.0000  plane waves:    5296
 k-point    51 :   0.2368 0.5000 0.0000  plane waves:    5296
 k-point    52 :   0.2105 0.5000 0.0000  plane waves:    5290
 k-point    53 :   0.1842 0.5000 0.0000  plane waves:    5292
 k-point    54 :   0.1579 0.5000 0.0000  plane waves:    5294
 k-point    55 :   0.1316 0.5000 0.0000  plane waves:    5298
 k-point    56 :   0.1053 0.5000 0.0000  plane waves:    5294
 k-point    57 :   0.0789 0.5000 0.0000  plane waves:    5306
 k-point    58 :   0.0526 0.5000 0.0000  plane waves:    5310
 k-point    59 :   0.0263 0.5000 0.0000  plane waves:    5308
 k-point    60 :   0.0000 0.5000 0.0000  plane waves:    5298
[...]
 k-point   226 :   0.5000 0.5000 0.1316  plane waves:    5292
 k-point   227 :   0.5000 0.5000 0.1579  plane waves:    5292
 k-point   228 :   0.5000 0.5000 0.1842  plane waves:    5304
 k-point   229 :   0.5000 0.5000 0.2105  plane waves:    5300
 k-point   230 :   0.5000 0.5000 0.2368  plane waves:    5280
 k-point   231 :   0.5000 0.5000 0.2632  plane waves:    5284
 k-point   232 :   0.5000 0.5000 0.2895  plane waves:    5292
 k-point   233 :   0.5000 0.5000 0.3158  plane waves:    5296
 k-point   234 :   0.5000 0.5000 0.3421  plane waves:    5308
 k-point   235 :   0.5000 0.5000 0.3684  plane waves:    5316
 k-point   236 :   0.5000 0.5000 0.3947  plane waves:    5316
 k-point   237 :   0.5000 0.5000 0.4211  plane waves:    5320
 k-point   238 :   0.5000 0.5000 0.4474  plane waves:    5316
 k-point   239 :   0.5000 0.5000 0.4737  plane waves:    5320
 k-point   240 :   0.5000 0.5000 0.5000  plane waves:    5312

 maximum and minimum number of plane-waves per node :      1357     1291

 maximum number of plane-waves:      5348
 maximum index in each direction:
   IXMAX=   13   IYMAX=    7   IZMAX=   12
   IXMIN=  -14   IYMIN=   -7   IZMIN=  -12

 parallel 3D FFT for wavefunctions:
    minimum data exchange during FFTs selected (reduces bandwidth)
 parallel 3D FFT for charge:
    minimum data exchange during FFTs selected (reduces bandwidth)

 Broyden mixing: mesh for mixing (old mesh)
   NGX = 27   NGY = 15   NGZ = 25
  (NGX  =112   NGY  = 60   NGZ  =100)
  gives a total of  10125 points

 charge density for first step will be calculated from the start-wavefunctions

 Maximum index for augmentation-charges         1078 (set IRDMAX)

 initial charge from wavefunction
 First call to EWALD:  gamma=   0.299
 Maximum number of real-space cells   2x   4x   2
 Maximum number of reciprocal cells   3x   2x   3

--------------------------------------- Ionic step        1  -------------------------------------------

--------------------------------------- Iteration      1(   1)  ---------------------------------------

 eigenvalue-minimisations  : 33384
 total energy-change (2. order) :-0.6139687E+02  (-0.1396647E-06)
 number of electron      66.0000002 magnetization
 augmentation part        7.5390565 magnetization

 Broyden mixing:
  rms(total) = 0.56026E-03    rms(broyden)= 0.56023E-03
  rms(prec ) = 0.10148E-02
  weight for this iteration     100.00

 Free energy of the ion-electron system (eV)
  alpha Z        PSCENC =       137.76793418
  Ewald energy   TEWEN  =     -3507.17040248
  -Hartree energ DENC   =      -954.43642058
  -exchange      EXHF   =         0.00000000
  -V(xc)+E(xc)   XCENC  =      -165.08278180
  PAW double counting   =      4872.54826824    -4673.95086824
  entropy T*S    EENTRO =         0.02064875
  eigenvalues    EBANDS =        47.73008934
  atomic energy  EATOM  =      4181.17666449
  Solvation  Ediel_sol  =         0.00000000
  free energy    TOTEN  =       -61.39686810 eV

  energy without entropy =      -61.41751685  energy(sigma->0) =      -61.40375101

[...]

 eigenvalues of (default mixing * dielectric matrix)
  average eigenvalue GAMMA=   0.1091
  0.1091

[...]

 eigenvalue-minimisations  : 33568
 total energy-change (2. order) : 0.1238190E-04  (-0.7673577E-05)
 number of electron      66.0000002 magnetization
 augmentation part        7.5393822 magnetization

[...]

 eigenvalue-minimisations  : 28376
 total energy-change (2. order) :-0.1018216E-06  (-0.3079646E-06)
 number of electron      66.0000002 magnetization
 augmentation part        7.5387990 magnetization

[...]

 eigenvalue-minimisations  : 26296
 total energy-change (2. order) : 0.1790795E-08  (-0.1545587E-07)
 number of electron      66.0000002 magnetization
 augmentation part        7.5390195 magnetization

[...]

 eigenvalue-minimisations  : 15920
 total energy-change (2. order) : 0.1366516E-07  ( 0.1020445E-07)
 number of electron      66.0000002 magnetization
 augmentation part        7.5390045 magnetization

[...]

 Broyden mixing:
  rms(total) = 0.23089E-05    rms(broyden)= 0.23087E-05
  rms(prec ) = 0.32973E-05
  weight for this iteration     100.00

 eigenvalues of (default mixing * dielectric matrix)
  average eigenvalue GAMMA=   0.7719
  1.8447  1.8447  0.8055  0.8055  0.1140  0.2082  0.6648  0.5487  0.5487  0.3344

[...]

--------------------------------------- Iteration      1(  12)  ---------------------------------------

 eigenvalue-minimisations  : 10120
 total energy-change (2. order) : 0.9240466E-08  ( 0.9754154E-08)
 number of electron      66.0000002 magnetization
 augmentation part        7.5390046 magnetization

 Free energy of the ion-electron system (eV)
  alpha Z        PSCENC =       137.76793418
  Ewald energy   TEWEN  =     -3507.17040248
  -Hartree energ DENC   =      -954.43469278
  -exchange      EXHF   =         0.00000000
  -V(xc)+E(xc)   XCENC  =      -165.08284786
  PAW double counting   =      4872.54517245    -4673.94729418
  entropy T*S    EENTRO =         0.02068007
  eigenvalues    EBANDS =        47.72791837
  atomic energy  EATOM  =      4181.17666449
  Solvation  Ediel_sol  =         0.00000000
  free energy    TOTEN  =       -61.39686775 eV

  energy without entropy =      -61.41754782  energy(sigma->0) =      -61.40376110

 average (electrostatic) potential at core
  the test charge radii are     1.0406  1.1513  1.0452
  (the norm of the test charge is              1.0000)
       1 -71.8832       2 -71.8832       3 -71.8832       4 -71.8832       5 -71.9503
       6 -71.9503       7 -71.8195       8 -71.8195       9 -75.7425      10 -75.7425
      11 -80.0494      12 -80.0494

 E-fermi :   8.4779     XC(G=0): -10.7272     alpha+bet :-16.0671

 val. band max:        8.4771661842   @ k =   0.0000   0.0000   0.1053
 cond. band min:       8.4790682428   @ k =   0.0000   0.3947   0.5000
 fundamental gap:      0.0019020586
 Fermi energy:         8.4779314672

 k-point     1 :       0.0000    0.0000    0.0000
  band No.  band energies     occupation
      1     -26.1186      2.00000
      2     -26.1006      2.00000
      3      -9.1879      2.00000
      4      -9.0570      2.00000
      5      -9.0460      2.00000
      6      -8.9003      2.00000
      7      -8.8340      2.00000
      8      -8.7983      2.00000
      9      -1.6498      2.00000
     10       0.4694      2.00000
     11       0.9241      2.00000
     12       2.7331      2.00000
     13       2.8102      2.00000
     14       3.8264      2.00000
     15       4.3614      2.00000
     16       4.4578      2.00000
     17       5.4163      2.00000
     18       5.7069      2.00000
     19       5.7575      2.00000
     20       5.7972      2.00000
     21       5.9964      2.00000
     22       6.1511      2.00000
     23       6.1819      2.00000
     24       6.2671      2.00000
     25       6.3452      2.00000
     26       6.5999      2.00000
     27       7.0244      2.00000
     28       7.1647      2.00000
     29       7.9211      2.00059
     30       8.1709      2.05214
     31       8.3128      1.99274
     32       8.4766      1.01115
     33       8.5055      0.76891
     34       8.5714      0.29701
     35       8.6103      0.10820
     36       8.6371      0.02201
     37       8.6568     -0.02088
     38       8.7359     -0.06972
     39       8.7517     -0.06570
     40       8.7666     -0.06015

[...]

 k-point   240 :       0.5000    0.5000    0.5000
  band No.  band energies     occupation
      1     -26.0872      2.00000
      2     -26.0872      2.00000
      3      -9.2174      2.00000
      4      -9.2174      2.00000
      5      -9.0514      2.00000
      6      -9.0514      2.00000
      7      -8.9227      2.00000
      8      -8.9227      2.00000
      9       0.7349      2.00000
     10       0.7349      2.00000
     11       1.9198      2.00000
     12       1.9198      2.00000
     13       2.7415      2.00000
     14       2.7415      2.00000
     15       4.7287      2.00000
     16       4.7287      2.00000
     17       4.9587      2.00000
     18       4.9587      2.00000
     19       5.3888      2.00000
     20       5.3888      2.00000
     21       5.7115      2.00000
     22       5.7115      2.00000
     23       6.1226      2.00000
     24       6.1226      2.00000
     25       6.1543      2.00000
     26       6.1543      2.00000
     27       6.7015      2.00000
     28       6.7015      2.00000
     29       7.0760      2.00000
     30       7.0760      2.00000
     31       7.1622      2.00000
     32       7.1622      2.00000
     33       8.5557      0.39410
     34       8.5557      0.39410
     35       8.5803      0.24668
     36       8.5803      0.24668
     37       8.7218     -0.07091
     38       8.7218     -0.07091
     39       8.7930     -0.04839
     40       8.7930     -0.04839

 soft charge-density along one line, spin component           1
         0         1         2         3         4         5         6         7         8         9
 total charge-density along one line

------------------------ aborting loop because EDIFF is reached ----------------------------------------

 total charge

# of ion       s       p       d       f       tot
    1        0.413   0.379   0.000   0.000   0.792
    2        0.413   0.379   0.000   0.000   0.792
    3        0.413   0.379   0.000   0.000   0.792
    4        0.413   0.379   0.000   0.000   0.792
    5        0.417   0.391   0.000   0.000   0.808
    6        0.417   0.391   0.000   0.000   0.808
    7        0.423   0.400   0.000   0.000   0.824
    8        0.423   0.400   0.000   0.000   0.824
    9        2.039   5.679   0.983   1.004   9.705
   10        2.039   5.679   0.983   1.004   9.705
   11        0.462   0.516   7.463   0.000   8.441
   12        0.462   0.516   7.463   0.000   8.441
tot          8.335  15.489  16.892   2.009  42.725

  FORCE on cell =-STRESS in cart. coord.  units (eV):
  Direction    XX          YY          ZZ          XY          YZ          ZX
  Alpha Z   137.76793   137.76793   137.76793
  Ewald   -1274.29211 -1233.89559  -998.98676    -0.00000    -0.00000     0.00000
  Hartree   250.91007   264.72519   438.79972    -0.00000    -0.00000    -0.00000
  E(xc)    -270.91477  -270.31585  -270.15296     0.00000     0.00000    -0.00000
  Local     -65.75559  -122.87260  -534.62917    -0.00000    -0.00000    -0.00000
  n-local   271.49740   266.98731   263.33606    -0.00010     0.00001     0.00001
  augment   260.60714   257.84163   261.77473    -0.00000    -0.00000    -0.00000
  Kinetic   691.56583   698.20857   702.28394     0.00018    -0.00008    -0.00004
  Fock        0.00000     0.00000     0.00000     0.00000     0.00000     0.00000
  Total       1.38591    -1.55341     0.19351     0.00000     0.00000    -0.00000
  in kB      10.63187   -11.91683     1.48447     0.00000     0.00000    -0.00000

 VOLUME and BASIS-vectors are now :
  energy-cutoff  :      500.00
  volume of cell :      208.85
      direct lattice vectors                 reciprocal lattice vectors
     7.601969351  0.000000000  0.000000000     0.131544861  0.000000000  0.000000000
     0.000000000  4.042502232  0.000000000     0.000000000  0.247371539  0.000000000
     0.000000000  0.000000000  6.796084561     0.000000000  0.000000000  0.147143549

  length of vectors
     7.601969351  4.042502232  6.796084561     0.131544861  0.247371539  0.147143549

 FORCES acting on ions
    electron-ion (+dipol)            ewald-force                    non-local-force                 convergence-correction
   0.289E+02 0.196E-12 -.745E-01   -.276E+02 -.203E-14 0.663E+00   -.119E+01 0.247E-22 -.557E+00   -.969E-05 -.229E-14 0.139E-04
   -.289E+02 -.537E-12 0.745E-01   0.276E+02 0.302E-14 -.663E+00   0.119E+01 0.403E-23 0.557E+00   0.969E-05 -.158E-14 -.139E-04
   -.289E+02 -.287E-12 -.745E-01   0.276E+02 -.180E-14 0.663E+00   0.119E+01 0.792E-23 -.557E+00   0.969E-05 -.266E-14 0.139E-04
   0.289E+02 -.368E-13 0.745E-01   -.276E+02 0.327E-14 -.663E+00   -.119E+01 0.141E-22 0.557E+00   -.969E-05 -.116E-14 -.139E-04
   -.180E-13 -.617E-12 -.184E+02   -.112E-13 -.197E-14 0.189E+02   -.291E-23 0.365E-22 -.555E+00   0.298E-14 -.106E-14 0.152E-04
   -.172E-13 0.269E-11 0.184E+02   -.448E-14 0.990E-15 -.189E+02   -.143E-22 -.396E-22 0.555E+00   -.286E-14 -.211E-14 -.152E-04
   0.496E-13 0.327E-13 0.302E-13   0.347E-13 -.210E-17 0.274E-13   0.141E-24 -.845E-23 0.201E-24   -.236E-14 0.132E-14 0.326E-14
   -.634E-12 0.620E-13 -.402E-12   0.383E-13 -.116E-15 -.320E-13   -.586E-24 0.114E-22 -.254E-24   0.920E-15 0.123E-14 -.465E-15
   0.380E-12 -.392E-12 0.716E+02   0.103E-14 -.139E-14 -.721E+02   0.157E-22 0.132E-21 0.385E+00   -.507E-14 0.255E-13 0.236E-05
   0.488E-12 0.389E-12 -.716E+02   0.107E-13 -.389E-14 0.721E+02   -.838E-23 0.138E-21 -.385E+00   -.120E-13 0.155E-13 -.236E-05
   0.234E-12 -.364E-12 -.454E+02   -.341E-13 -.815E-14 0.426E+02   0.167E-22 -.382E-22 0.298E+01   0.231E-13 0.309E-13 -.334E-04
   0.125E-11 0.367E-12 0.454E+02   -.242E-13 0.328E-14 -.426E+02   0.158E-23 0.293E-22 -.298E+01   -.148E-13 0.412E-13 0.334E-04
   0.220E-11 0.151E-11 -.162E-11   -.176E-13 -.879E-14 -.355E-13   0.794E-23 0.311E-21 0.000E+00   -.764E-14 0.105E-12 -.126E-13

 POSITION                                       TOTAL-FORCE (eV/Angst)
      4.32349      2.02125      2.06116         0.079326     -0.000000      0.031226
      3.27848      2.02125      4.73493        -0.079326      0.000000     -0.031226
      7.07946      2.02125      2.06116        -0.079326     -0.000000      0.031226
      0.52251      2.02125      4.73493         0.079326     -0.000000     -0.031226
      1.90049      2.02125      0.30634         0.000000      0.000000     -0.061610
      5.70148      2.02125      6.48974         0.000000     -0.000000      0.061610
      0.00000      0.00000      0.00000         0.000000     -0.000000      0.000000
      3.80098      0.00000      0.00000         0.000000     -0.000000     -0.000000
      1.90049      0.00000      2.60850         0.000000      0.000000     -0.057326
      5.70148      0.00000      4.18758        -0.000000     -0.000000      0.057326
      1.90049      0.00000      5.46154        -0.000000     -0.000000      0.193393
      5.70148      0.00000      1.33454        -0.000000     -0.000000     -0.193393
    total drift:                                0.000000      0.000000     -0.000000

  FREE ENERGIE OF THE ION-ELECTRON SYSTEM (eV)
  free  energy   TOTEN  =       -61.39686775 eV

  energy  without entropy=      -61.41754782  energy(sigma->0) =      -61.40376110

 writing wavefunctions

 total charge

# of ion       s       p       d       f       tot
    1        0.413   0.379   0.000   0.000   0.792
    2        0.413   0.379   0.000   0.000   0.792
    3        0.413   0.379   0.000   0.000   0.792
    4        0.413   0.379   0.000   0.000   0.792
    5        0.417   0.391   0.000   0.000   0.808
    6        0.417   0.391   0.000   0.000   0.808
    7        0.423   0.400   0.000   0.000   0.824
    8        0.423   0.400   0.000   0.000   0.824
    9        2.039   5.679   0.983   1.004   9.705
   10        2.039   5.679   0.983   1.004   9.705
   11        0.462   0.516   7.463   0.000   8.441
   12        0.462   0.516   7.463   0.000   8.441
tot          8.335  15.489  16.892   2.009  42.725